c turning on binary mode checking
c parsing input formula with 202048 variables and 780980 clauses
c finished parsing, read 19878293 bytes from proof file
c detected empty clause; start verification via backward checking
c 28428 of 780980 clauses in core                            
c 41636 of 500848 lemmas in core using 310967 resolution steps
c 0 RAT lemmas in core; 3035 redundant literals in core lemmas
s VERIFIED
c verification time: 3.873 seconds
